db/data/24223182332907818329149428865762625180.z3.out
sat
-------------------
113.007095004
